(set-logic HORN)
(set-info :source |
    Benchmark: C_VC
    Output by Princess (http://www.philipp.ruemmer.org/princess.shtml)
|)
(set-info :status sat)
;===============================================================================
; Encoding of Heap sorts and operations
;-------------------------------------------------------------------------------
(define-sort Addr() Int)
(declare-datatypes ((AddrRange 0))
                   (((AddrRange (AddrRangeStart Addr) (AddrRangeSize Int)))))

(declare-datatypes ((HeapObject 0) (node 0))
                   (((O_Int (getInt Int)) (O_UInt (getUInt Int)) (O_Addr (getAddr Addr)) (O_AddrRange (getAddrRange AddrRange)) (O_node (getnode node)) (defObj))
                   ((node (|node::next| Addr) (|node::val| Int)))))
(declare-datatypes ((BatchAllocResHeap 0) (AllocResHeap 0) (Heap 0))
                   (((BatchAllocResHeap   (newBatchHeap Heap) (newAddrRange AddrRange)))
                   ((AllocResHeap   (newHeap Heap) (newAddr Addr)))
                    ((HeapCtor (HeapSize Int)
                               (HeapContents (Array Addr HeapObject))))))
(define-fun nullAddr  () Addr 0)
(define-fun valid     ((h Heap) (p Addr)) Bool
  (and (>= (HeapSize h) p) (> p 0)))
(define-fun emptyHeap () Heap (
  HeapCtor 0 (( as const (Array Addr HeapObject)) defObj)))
(define-fun read ((h Heap) (p Addr)) HeapObject
  (ite (valid h p)
       (select (HeapContents h) p)
       defObj))
(define-fun write ((h Heap) (p Addr) (o HeapObject)) Heap
  (ite (valid h p)
       (HeapCtor (HeapSize h) (store (HeapContents h) p o))
       h))
(define-fun alloc   ((h Heap) (o HeapObject)) AllocResHeap
  (AllocResHeap (HeapCtor (+ 1 (HeapSize h))
                    (store (HeapContents h) (+ 1 (HeapSize h)) o))
          (+ 1 (HeapSize h))))

;===============================================================================
(declare-fun inv_main573_5 (Heap) Bool)
(declare-fun inv_main574_5 (Heap Addr Int Int) Bool)
(declare-fun inv_main586_5 (Heap Addr Int Int Addr) Bool)
(declare-fun inv_main588_13_11 (Heap Addr Int Int Addr) Bool)
(declare-fun inv_main590_13_14 (Heap Addr Int Int Addr) Bool)
(assert (forall ((var0 Heap)) (or (not (= var0 emptyHeap)) (inv_main573_5 var0))))
(assert (forall ((var0 Addr) (var1 Addr) (var2 Int) (var3 Int) (var4 Addr) (var5 Heap) (var6 Addr) (var7 Int) (var8 Int) (var9 Addr) (var10 Heap)) (or (not (and (inv_main590_13_14 var10 var9 var8 var7 var6) (and (and (and (and (and (= var5 var10) (= var4 var9)) (= var3 var8)) (= var2 var7)) (= var1 var6)) (= var0 (|node::next| (getnode (read var10 var6))))))) (inv_main586_5 var5 var4 var3 var2 var0))))
(assert (forall ((var0 Int) (var1 Addr) (var2 Addr) (var3 Addr) (var4 Int) (var5 Int) (var6 Int) (var7 Int) (var8 Addr) (var9 Addr) (var10 Heap) (var11 Heap) (var12 Addr) (var13 Int) (var14 Int) (var15 Addr) (var16 Heap)) (or (not (and (inv_main588_13_11 var16 var15 var14 var13 var12) (and (and (and (and (and (and (= var11 var10) (= var9 var8)) (= var7 var6)) (= var5 var4)) (= var3 var2)) (= var1 (|node::next| (getnode (read var10 var2))))) (and (not (<= 0 (+ (+ var0 (* (- 1) var4)) (- 1)))) (and (and (and (and (and (= var10 var16) (= var8 var15)) (= var6 var14)) (= var4 var13)) (= var2 var12)) (= var0 (|node::val| (getnode (read var16 var12))))))))) (inv_main586_5 var11 var9 var7 var5 var1))))
(assert (forall ((var0 Int) (var1 Addr) (var2 Int) (var3 Int) (var4 Addr) (var5 Heap) (var6 Int) (var7 Addr) (var8 Addr) (var9 Addr) (var10 Int) (var11 Int) (var12 Int) (var13 Int) (var14 Addr) (var15 Addr) (var16 Heap) (var17 Heap) (var18 Addr) (var19 Int) (var20 Int) (var21 Addr) (var22 Heap)) (or (not (and (inv_main586_5 var22 var21 var20 var19 var18) (and (and (and (and (and (and (= var17 var16) (= var15 var14)) (= var13 var12)) (= var11 var10)) (= var9 var8)) (= var7 (|node::next| (getnode (read var16 var8))))) (and (and (not (<= 0 (+ (+ var6 (* (- 1) var10)) (- 1)))) (and (and (and (and (and (= var16 var5) (= var14 var4)) (= var12 var3)) (= var10 var2)) (= var8 var1)) (= var6 (|node::val| (getnode (read var5 var1)))))) (and (and (not (<= 0 (+ (+ var3 (* (- 1) var0)) (- 1)))) (and (and (and (and (and (= var5 var22) (= var4 var21)) (= var3 var20)) (= var2 var19)) (= var1 var18)) (= var0 (|node::val| (getnode (read var22 var18)))))) (not (= var18 nullAddr))))))) (inv_main586_5 var17 var15 var13 var11 var7))))
(assert (forall ((var0 Int) (var1 Int) (var2 Int) (var3 Addr) (var4 Heap)) (or (not (and (inv_main574_5 var4 var3 var2 var1) (= var0 0))) (inv_main586_5 var4 var3 var2 var1 var3))))
(assert (forall ((var0 Addr) (var1 Int) (var2 Addr) (var3 Heap) (var4 Int) (var5 Int) (var6 Addr) (var7 Int) (var8 Int) (var9 Addr) (var10 Heap)) (or (not (and (inv_main586_5 var10 var9 var8 var7 var6) (and (and (<= 0 (+ (+ var5 (* (- 1) var4)) (- 1))) (and (and (and (and (and (= var3 var10) (= var2 var9)) (= var5 var8)) (= var1 var7)) (= var0 var6)) (= var4 (|node::val| (getnode (read var10 var6)))))) (not (= var6 nullAddr))))) (inv_main588_13_11 var3 var2 var5 var1 var0))))
(assert (forall ((var0 Int) (var1 Addr) (var2 Addr) (var3 Int) (var4 Int) (var5 Addr) (var6 Int) (var7 Heap) (var8 Addr) (var9 Int) (var10 Int) (var11 Addr) (var12 node) (var13 Heap) (var14 Int) (var15 Int) (var16 Int) (var17 Addr) (var18 Heap) (var19 Int) (var20 Addr) (var21 Addr) (var22 Int) (var23 Int) (var24 Int) (var25 Int) (var26 Addr) (var27 Addr) (var28 Heap) (var29 Heap) (var30 Int) (var31 Int) (var32 Addr) (var33 Heap)) (or (not (and (inv_main574_5 var33 var32 var31 var30) (and (and (and (and (and (and (and (and (= var29 var28) (= var27 var26)) (= var25 var24)) (= var23 var22)) (= var21 var20)) (= var19 (|node::val| (getnode (read var28 var20))))) (<= 0 (+ (+ (|node::val| (getnode (read var28 var20))) (* (- 1) var22)) (- 1)))) (and (and (and (and (and (and (= var28 var18) (= var26 var17)) (= var16 var15)) (= var22 var14)) (= var20 var17)) (= var24 (|node::val| (getnode (read var18 var17))))) (and (<= 0 (+ (+ var15 (* (- 1) (|node::val| (getnode (read var18 var17))))) (- 1))) (and (and (and (and (and (and (= var13 (newHeap (alloc var33 (O_node var12)))) (= var11 var32)) (= var10 var31)) (= var9 var30)) (= var8 (newAddr (alloc var33 (O_node var12))))) (and (and (and (and (= var7 (write var13 var8 (O_node (node (|node::next| (getnode (read var13 var8))) var6)))) (= var5 var11)) (= var4 var10)) (= var3 var9)) (= var2 var8))) (and (and (and (and (= var18 (write var7 var2 (O_node (node var5 (|node::val| (getnode (read var7 var2))))))) (= var1 var5)) (= var15 var4)) (= var14 var3)) (= var17 var2)))))) (not (= var0 0))))) (inv_main574_5 var29 var27 var25 var19))))
(assert (forall ((var0 Int) (var1 Addr) (var2 Addr) (var3 Int) (var4 Int) (var5 Addr) (var6 Int) (var7 Heap) (var8 Addr) (var9 Int) (var10 Int) (var11 Addr) (var12 node) (var13 Heap) (var14 Int) (var15 Int) (var16 Int) (var17 Int) (var18 Addr) (var19 Addr) (var20 Heap) (var21 Int) (var22 Addr) (var23 Heap) (var24 Int) (var25 Int) (var26 Addr) (var27 Heap)) (or (not (and (inv_main574_5 var27 var26 var25 var24) (and (and (not (<= 0 (+ (+ (|node::val| (getnode (read var23 var22))) (* (- 1) var21)) (- 1)))) (and (and (and (and (and (and (= var23 var20) (= var19 var18)) (= var17 var16)) (= var21 var15)) (= var22 var18)) (= var14 (|node::val| (getnode (read var20 var18))))) (and (<= 0 (+ (+ var16 (* (- 1) (|node::val| (getnode (read var20 var18))))) (- 1))) (and (and (and (and (and (and (= var13 (newHeap (alloc var27 (O_node var12)))) (= var11 var26)) (= var10 var25)) (= var9 var24)) (= var8 (newAddr (alloc var27 (O_node var12))))) (and (and (and (and (= var7 (write var13 var8 (O_node (node (|node::next| (getnode (read var13 var8))) var6)))) (= var5 var11)) (= var4 var10)) (= var3 var9)) (= var2 var8))) (and (and (and (and (= var20 (write var7 var2 (O_node (node var5 (|node::val| (getnode (read var7 var2))))))) (= var1 var5)) (= var16 var4)) (= var15 var3)) (= var18 var2)))))) (not (= var0 0))))) (inv_main574_5 var23 var19 var14 var21))))
(assert (forall ((var0 Int) (var1 Addr) (var2 Addr) (var3 Int) (var4 Int) (var5 Addr) (var6 Int) (var7 Heap) (var8 Addr) (var9 Int) (var10 Int) (var11 Addr) (var12 node) (var13 Heap) (var14 Int) (var15 Addr) (var16 Int) (var17 Int) (var18 Int) (var19 Int) (var20 Addr) (var21 Addr) (var22 Heap) (var23 Heap) (var24 Int) (var25 Int) (var26 Addr) (var27 Heap)) (or (not (and (inv_main574_5 var27 var26 var25 var24) (and (and (and (and (and (and (and (and (= var23 var22) (= var21 var20)) (= var19 var18)) (= var17 var16)) (= var15 var20)) (= var14 (|node::val| (getnode (read var22 var20))))) (<= 0 (+ (+ (|node::val| (getnode (read var22 var20))) (* (- 1) var16)) (- 1)))) (and (not (<= 0 (+ (+ var18 (* (- 1) (|node::val| (getnode (read var22 var20))))) (- 1)))) (and (and (and (and (and (and (= var13 (newHeap (alloc var27 (O_node var12)))) (= var11 var26)) (= var10 var25)) (= var9 var24)) (= var8 (newAddr (alloc var27 (O_node var12))))) (and (and (and (and (= var7 (write var13 var8 (O_node (node (|node::next| (getnode (read var13 var8))) var6)))) (= var5 var11)) (= var4 var10)) (= var3 var9)) (= var2 var8))) (and (and (and (and (= var22 (write var7 var2 (O_node (node var5 (|node::val| (getnode (read var7 var2))))))) (= var1 var5)) (= var18 var4)) (= var16 var3)) (= var20 var2))))) (not (= var0 0))))) (inv_main574_5 var23 var21 var19 var14))))
(assert (forall ((var0 Int) (var1 Addr) (var2 Addr) (var3 Int) (var4 Int) (var5 Addr) (var6 Int) (var7 Heap) (var8 Addr) (var9 Int) (var10 Int) (var11 Addr) (var12 node) (var13 Heap) (var14 Int) (var15 Int) (var16 Addr) (var17 Heap) (var18 Int) (var19 Int) (var20 Addr) (var21 Heap)) (or (not (and (inv_main574_5 var21 var20 var19 var18) (and (and (not (<= 0 (+ (+ (|node::val| (getnode (read var17 var16))) (* (- 1) var15)) (- 1)))) (and (not (<= 0 (+ (+ var14 (* (- 1) (|node::val| (getnode (read var17 var16))))) (- 1)))) (and (and (and (and (and (and (= var13 (newHeap (alloc var21 (O_node var12)))) (= var11 var20)) (= var10 var19)) (= var9 var18)) (= var8 (newAddr (alloc var21 (O_node var12))))) (and (and (and (and (= var7 (write var13 var8 (O_node (node (|node::next| (getnode (read var13 var8))) var6)))) (= var5 var11)) (= var4 var10)) (= var3 var9)) (= var2 var8))) (and (and (and (and (= var17 (write var7 var2 (O_node (node var5 (|node::val| (getnode (read var7 var2))))))) (= var1 var5)) (= var14 var4)) (= var15 var3)) (= var16 var2))))) (not (= var0 0))))) (inv_main574_5 var17 var16 var14 var15))))
(assert (forall ((var0 Int) (var1 Int) (var2 Addr) (var3 Heap) (var4 Heap)) (or (not (and (inv_main573_5 var4) (and (and (and (= var3 var4) (= var2 nullAddr)) (= var1 2147483647)) (= var0 (- 2147483647))))) (inv_main574_5 var3 var2 var1 var0))))
(assert (forall ((var0 Addr) (var1 Int) (var2 Addr) (var3 Heap) (var4 Int) (var5 Int) (var6 Addr) (var7 Int) (var8 Int) (var9 Addr) (var10 Heap)) (or (not (and (inv_main588_13_11 var10 var9 var8 var7 var6) (and (<= 0 (+ (+ var5 (* (- 1) var4)) (- 1))) (and (and (and (and (and (= var3 var10) (= var2 var9)) (= var1 var8)) (= var4 var7)) (= var0 var6)) (= var5 (|node::val| (getnode (read var10 var6)))))))) (inv_main590_13_14 var3 var2 var1 var4 var0))))
(assert (forall ((var0 Int) (var1 Addr) (var2 Addr) (var3 Int) (var4 Int) (var5 Int) (var6 Addr) (var7 Addr) (var8 Heap) (var9 Heap) (var10 Int) (var11 Int) (var12 Addr) (var13 Int) (var14 Int) (var15 Addr) (var16 Heap)) (or (not (and (inv_main586_5 var16 var15 var14 var13 var12) (and (and (<= 0 (+ (+ var11 (* (- 1) var10)) (- 1))) (and (and (and (and (and (= var9 var8) (= var7 var6)) (= var5 var4)) (= var10 var3)) (= var2 var1)) (= var11 (|node::val| (getnode (read var8 var1)))))) (and (and (not (<= 0 (+ (+ var4 (* (- 1) var0)) (- 1)))) (and (and (and (and (and (= var8 var16) (= var6 var15)) (= var4 var14)) (= var3 var13)) (= var1 var12)) (= var0 (|node::val| (getnode (read var16 var12)))))) (not (= var12 nullAddr)))))) (inv_main590_13_14 var9 var7 var5 var10 var2))))
(assert (forall ((var0 Addr) (var1 Int) (var2 Int) (var3 Addr) (var4 Heap)) (not (inv_main588_13_11 var4 var3 var2 var1 var0))))
(assert (forall ((var0 Addr) (var1 Int) (var2 Int) (var3 Addr) (var4 Heap)) (not (inv_main590_13_14 var4 var3 var2 var1 var0))))
(check-sat)
